(set-logic ALL)
(declare-fun var0 () String)
(assert (str.in_re var0 (re.++ (re.union (re.* (str.to_re "0")) (re.* (str.to_re "11"))) (re.++ (re.union (re.+ (str.to_re "22")) (re.+ (str.to_re "333"))) (re.++ (re.union (re.union (str.to_re "44") (str.to_re "55")) (re.union (str.to_re "6") (str.to_re "777"))) (re.++ (re.+ (re.union (str.to_re "888") (str.to_re "99"))) (re.++ (re.union (re.+ (str.to_re "a")) (re.+ (str.to_re "bb"))) (re.++ (re.+ (re.+ (str.to_re "c"))) (re.++ (re.union (re.+ (str.to_re "d")) (re.+ (str.to_re "eee"))) (re.++ (re.* (re.union (str.to_re "ff") (str.to_re "g"))) (re.++ (re.* (re.+ (str.to_re "hhh"))) (re.++ (re.+ (re.+ (str.to_re "iii"))) (re.++ (re.union (re.* (str.to_re "jjj")) (re.* (str.to_re "kk"))) (re.++ (re.+ (re.+ (str.to_re "lll"))) (re.++ (re.* (re.+ (str.to_re "m"))) (re.++ (re.* (re.* (str.to_re "nnn"))) (re.++ (re.+ (re.* (str.to_re "ooo"))) (re.++ (re.+ (re.union (str.to_re "ppp") (str.to_re "q"))) (re.++ (re.+ (re.* (str.to_re "rrr"))) (re.++ (re.+ (re.* (str.to_re "sss"))) (re.++ (re.* (re.+ (str.to_re "tt"))) (re.++ (re.* (re.* (str.to_re "uu"))) (re.++ (re.union (re.* (str.to_re "vvv")) (re.* (str.to_re "ww"))) (re.++ (re.+ (re.union (str.to_re "xx") (str.to_re "y"))) (re.++ (re.union (re.+ (str.to_re "zz")) (re.+ (str.to_re "AAA"))) (re.++ (re.union (re.+ (str.to_re "B")) (re.+ (str.to_re "CCC"))) (re.++ (re.union (re.* (str.to_re "DDD")) (re.* (str.to_re "EEE"))) (re.++ (re.* (re.union (str.to_re "FFF") (str.to_re "G"))) (re.++ (re.* (re.+ (str.to_re "H"))) (re.++ (re.+ (re.+ (str.to_re "III"))) (re.++ (re.+ (re.+ (str.to_re "J"))) (re.++ (re.union (re.union (str.to_re "KKK") (str.to_re "LLL")) (re.union (str.to_re "MM") (str.to_re "N"))) (re.++ (re.union (re.* (str.to_re "OO")) (re.* (str.to_re "P"))) (re.++ (re.* (re.+ (str.to_re "QQ"))) (re.++ (re.* (re.+ (str.to_re "R"))) (re.++ (re.+ (re.union (str.to_re "SSS") (str.to_re "TTT"))) (re.++ (re.+ (re.+ (str.to_re "U"))) (re.++ (re.+ (re.+ (str.to_re "V"))) (re.++ (re.+ (re.union (str.to_re "WWW") (str.to_re "X"))) (re.++ (re.+ (re.union (str.to_re "YY") (str.to_re "ZZ"))) (re.++ (re.union (re.+ (str.to_re "!!!")) (re.+ (str.to_re """"""))) (re.++ (re.* (re.+ (str.to_re "###"))) (re.++ (re.union (re.union (str.to_re "$$") (str.to_re "%%%")) (re.union (str.to_re "&") (str.to_re "'''"))) (re.++ (re.+ (re.union (str.to_re "(((") (str.to_re ")"))) (re.++ (re.+ (re.union (str.to_re "***") (str.to_re "+++"))) (re.++ (re.union (re.+ (str.to_re ",")) (re.+ (str.to_re "---"))) (re.++ (re.union (re.union (str.to_re "...") (str.to_re "/")) (re.union (str.to_re ":") (str.to_re ";;"))) (re.++ (re.union (re.union (str.to_re "<<") (str.to_re "===")) (re.union (str.to_re ">>>") (str.to_re "??"))) (re.++ (re.union (re.union (str.to_re "@@@") (str.to_re "[[")) (re.union (str.to_re "\\") (str.to_re "]"))) (re.++ (re.+ (re.union (str.to_re "^^^") (str.to_re "__"))) (re.++ (re.+ (re.+ (str.to_re "```"))) (re.++ (re.union (re.+ (str.to_re "{")) (re.+ (str.to_re "||"))) (re.++ (re.* (re.union (str.to_re "}}}") (str.to_re "~~~"))) (re.++ (re.* (re.* (str.to_re "00"))) (re.++ (re.* (re.+ (str.to_re "111"))) (re.++ (re.* (re.union (str.to_re "222") (str.to_re "333"))) (re.* (re.* (str.to_re "44")))))))))))))))))))))))))))))))))))))))))))))))))))))))))))
(check-sat)